80
1580
40
0 1
0 2
0 3
0 5
0 6
0 7
0 10
0 12
0 13
0 16
0 17
0 18
0 19
0 20
0 26
0 28
0 29
0 31
0 33
0 35
0 37
0 38
0 39
0 43
0 44
0 45
0 46
0 47
0 48
0 50
0 52
0 58
0 59
0 60
0 63
0 66
0 67
0 69
0 70
0 72
0 73
0 74
0 75
0 76
0 77
0 78
0 79
1 2
1 3
1 4
1 7
1 8
1 9
1 12
1 15
1 17
1 20
1 23
1 25
1 30
1 32
1 37
1 38
1 39
1 42
1 47
1 51
1 56
1 57
1 65
1 66
1 70
1 72
1 73
1 75
1 76
1 77
2 5
2 7
2 10
2 11
2 12
2 13
2 15
2 17
2 20
2 22
2 24
2 28
2 31
2 34
2 37
2 44
2 45
2 48
2 49
2 54
2 56
2 58
2 59
2 60
2 61
2 63
2 65
2 66
2 68
2 72
2 73
2 75
2 76
3 4
3 6
3 7
3 10
3 11
3 13
3 14
3 15
3 16
3 18
3 19
3 21
3 26
3 27
3 29
3 30
3 32
3 37
3 39
3 40
3 43
3 44
3 47
3 49
3 50
3 52
3 56
3 61
3 63
3 64
3 65
3 66
3 67
3 68
3 70
3 71
3 72
3 73
3 75
3 77
3 78
4 5
4 6
4 8
4 10
4 11
4 12
4 14
4 15
4 16
4 18
4 20
4 25
4 26
4 28
4 29
4 31
4 34
4 37
4 43
4 44
4 45
4 46
4 47
4 48
4 49
4 51
4 52
4 53
4 54
4 55
4 57
4 58
4 59
4 60
4 62
4 63
4 65
4 68
4 69
4 70
4 71
4 72
4 74
4 75
4 76
4 77
4 78
4 79
5 9
5 11
5 14
5 15
5 16
5 18
5 19
5 20
5 21
5 22
5 23
5 25
5 26
5 27
5 28
5 29
5 31
5 32
5 36
5 38
5 39
5 43
5 46
5 49
5 50
5 51
5 52
5 53
5 54
5 56
5 57
5 60
5 62
5 65
5 67
5 70
5 71
5 73
5 74
5 77
5 79
6 8
6 9
6 10
6 12
6 13
6 14
6 15
6 18
6 19
6 20
6 21
6 25
6 27
6 30
6 31
6 40
6 43
6 46
6 47
6 48
6 49
6 50
6 51
6 52
6 53
6 54
6 58
6 59
6 60
6 67
6 69
6 70
6 75
6 77
6 78
7 8
7 9
7 11
7 13
7 16
7 17
7 18
7 22
7 24
7 27
7 32
7 38
7 44
7 47
7 48
7 49
7 51
7 55
7 56
7 57
7 59
7 61
7 65
7 66
7 67
7 69
7 70
7 71
7 72
7 73
7 76
7 77
7 78
8 10
8 11
8 13
8 16
8 17
8 18
8 19
8 21
8 23
8 24
8 25
8 27
8 29
8 30
8 32
8 36
8 38
8 44
8 49
8 54
8 56
8 57
8 59
8 60
8 61
8 62
8 66
8 70
8 71
8 73
8 75
8 76
8 77
8 79
9 10
9 12
9 14
9 15
9 16
9 17
9 19
9 22
9 23
9 24
9 26
9 28
9 29
9 31
9 38
9 44
9 50
9 51
9 52
9 54
9 55
9 58
9 60
9 62
9 63
9 67
9 72
9 73
9 74
9 75
9 78
9 79
10 20
10 22
10 24
10 25
10 26
10 28
10 29
10 30
10 31
10 34
10 35
10 36
10 37
10 38
10 40
10 42
10 45
10 48
10 49
10 50
10 52
10 53
10 54
10 55
10 56
10 57
10 60
10 64
10 66
10 67
10 68
10 71
10 73
10 74
10 78
10 79
11 12
11 13
11 14
11 15
11 16
11 20
11 21
11 23
11 24
11 25
11 26
11 28
11 30
11 31
11 33
11 34
11 35
11 37
11 38
11 39
11 41
11 44
11 45
11 46
11 47
11 48
11 49
11 50
11 52
11 53
11 54
11 59
11 60
11 62
11 64
11 70
11 73
11 74
11 75
11 77
11 78
11 79
12 15
12 16
12 17
12 19
12 20
12 22
12 23
12 24
12 25
12 26
12 28
12 33
12 35
12 38
12 39
12 43
12 44
12 47
12 48
12 51
12 60
12 62
12 64
12 68
12 74
12 75
12 77
13 14
13 15
13 16
13 19
13 21
13 23
13 24
13 26
13 27
13 33
13 34
13 37
13 38
13 40
13 41
13 43
13 46
13 48
13 53
13 55
13 57
13 60
13 62
13 64
13 66
13 68
13 69
13 70
13 71
13 74
13 75
13 77
13 79
14 16
14 17
14 18
14 20
14 21
14 22
14 23
14 24
14 25
14 27
14 28
14 31
14 32
14 33
14 34
14 35
14 36
14 37
14 38
14 40
14 42
14 43
14 44
14 46
14 50
14 53
14 55
14 56
14 58
14 59
14 62
14 63
14 65
14 66
14 68
14 71
14 72
14 74
14 75
15 16
15 19
15 22
15 24
15 25
15 27
15 33
15 34
15 36
15 39
15 42
15 44
15 45
15 48
15 51
15 52
15 54
15 55
15 57
15 58
15 60
15 63
15 64
15 67
15 69
15 73
15 75
15 78
15 79
16 17
16 21
16 23
16 25
16 30
16 31
16 33
16 35
16 36
16 38
16 39
16 40
16 42
16 44
16 46
16 50
16 51
16 53
16 54
16 58
16 60
16 62
16 64
16 68
16 70
16 71
16 74
16 76
16 79
17 19
17 25
17 26
17 28
17 30
17 31
17 32
17 33
17 37
17 39
17 41
17 43
17 44
17 45
17 50
17 51
17 53
17 59
17 61
17 63
17 64
17 65
17 68
17 69
17 71
17 72
17 73
17 75
17 77
17 79
18 21
18 22
18 26
18 28
18 34
18 35
18 36
18 41
18 42
18 44
18 45
18 46
18 47
18 49
18 52
18 54
18 55
18 56
18 57
18 59
18 61
18 65
18 66
18 67
18 69
18 70
18 71
18 76
19 20
19 22
19 27
19 28
19 29
19 30
19 31
19 32
19 34
19 35
19 36
19 38
19 41
19 42
19 43
19 46
19 50
19 51
19 52
19 54
19 55
19 57
19 59
19 60
19 66
19 67
19 68
19 69
19 70
19 72
19 74
19 75
19 77
19 78
20 22
20 24
20 26
20 27
20 28
20 30
20 32
20 33
20 34
20 35
20 36
20 37
20 42
20 43
20 45
20 46
20 47
20 48
20 50
20 52
20 61
20 63
20 64
20 70
20 75
20 76
20 77
20 79
21 22
21 23
21 29
21 32
21 33
21 34
21 35
21 40
21 44
21 45
21 47
21 48
21 49
21 52
21 53
21 56
21 57
21 58
21 59
21 65
21 67
21 68
21 71
21 73
21 74
21 75
21 76
21 78
21 79
22 24
22 28
22 29
22 30
22 34
22 38
22 40
22 42
22 43
22 44
22 45
22 46
22 48
22 50
22 56
22 57
22 59
22 60
22 61
22 63
22 67
22 68
22 70
22 71
22 73
22 75
22 77
22 78
23 32
23 33
23 37
23 39
23 40
23 46
23 47
23 49
23 50
23 52
23 53
23 55
23 56
23 57
23 58
23 60
23 61
23 62
23 65
23 69
23 70
23 71
23 75
23 78
24 25
24 28
24 33
24 34
24 35
24 37
24 38
24 39
24 45
24 46
24 49
24 50
24 52
24 54
24 58
24 60
24 62
24 65
24 67
24 68
24 70
24 72
24 74
24 75
25 26
25 27
25 32
25 33
25 35
25 37
25 43
25 44
25 45
25 46
25 47
25 48
25 49
25 50
25 52
25 53
25 57
25 60
25 61
25 66
25 68
25 69
25 70
25 72
25 74
25 75
25 77
25 79
26 27
26 28
26 29
26 30
26 31
26 32
26 34
26 35
26 36
26 37
26 39
26 42
26 45
26 46
26 47
26 49
26 50
26 51
26 52
26 53
26 55
26 57
26 60
26 62
26 63
26 68
26 69
26 73
26 74
26 76
26 78
26 79
27 32
27 33
27 36
27 37
27 38
27 39
27 40
27 41
27 42
27 44
27 45
27 47
27 48
27 53
27 55
27 59
27 60
27 61
27 63
27 64
27 66
27 68
27 70
27 73
27 76
28 29
28 33
28 36
28 37
28 38
28 39
28 40
28 44
28 45
28 46
28 47
28 48
28 52
28 53
28 55
28 56
28 57
28 59
28 60
28 64
28 65
28 69
28 71
28 72
28 73
28 74
28 75
28 76
28 79
29 30
29 34
29 36
29 37
29 42
29 43
29 44
29 45
29 46
29 51
29 52
29 53
29 54
29 56
29 57
29 58
29 60
29 62
29 65
29 66
29 67
29 68
29 70
29 72
29 73
29 76
29 79
30 32
30 33
30 34
30 35
30 36
30 38
30 39
30 41
30 42
30 51
30 58
30 60
30 61
30 63
30 64
30 67
30 68
30 72
30 76
30 77
30 78
30 79
31 32
31 34
31 39
31 41
31 43
31 44
31 45
31 47
31 49
31 50
31 56
31 59
31 62
31 64
31 65
31 67
31 73
31 74
31 76
31 77
31 79
32 33
32 35
32 37
32 38
32 40
32 42
32 43
32 44
32 45
32 46
32 50
32 53
32 54
32 55
32 57
32 61
32 63
32 64
32 65
32 67
32 69
32 70
32 71
32 75
32 76
32 78
33 34
33 36
33 39
33 42
33 47
33 48
33 49
33 50
33 51
33 53
33 56
33 58
33 59
33 60
33 63
33 65
33 67
33 69
33 72
33 78
33 79
34 35
34 36
34 39
34 40
34 41
34 45
34 52
34 53
34 55
34 56
34 57
34 59
34 61
34 63
34 64
34 65
34 66
34 67
34 68
34 70
34 72
34 74
34 76
34 77
35 40
35 41
35 43
35 50
35 53
35 55
35 57
35 61
35 63
35 64
35 65
35 68
35 69
35 70
35 74
35 77
36 37
36 41
36 44
36 45
36 46
36 47
36 48
36 49
36 51
36 52
36 53
36 56
36 59
36 60
36 61
36 63
36 64
36 65
36 66
36 67
36 71
36 75
36 76
37 44
37 46
37 51
37 52
37 53
37 55
37 56
37 58
37 59
37 61
37 64
37 65
37 66
37 67
37 68
37 71
37 72
37 74
37 76
38 39
38 40
38 42
38 46
38 47
38 48
38 50
38 54
38 55
38 57
38 59
38 61
38 62
38 68
38 69
38 71
38 72
38 73
38 74
38 76
39 41
39 44
39 46
39 48
39 52
39 54
39 59
39 61
39 66
39 69
39 76
39 77
39 79
40 41
40 49
40 53
40 54
40 55
40 56
40 57
40 58
40 61
40 64
40 65
40 66
40 67
40 70
40 72
40 73
40 76
40 77
40 78
41 42
41 43
41 44
41 45
41 48
41 49
41 50
41 54
41 55
41 61
41 62
41 65
41 67
41 70
41 72
41 74
41 75
41 76
41 78
41 79
42 43
42 47
42 48
42 54
42 55
42 56
42 57
42 60
42 62
42 64
42 67
42 68
42 69
42 70
42 73
42 75
42 76
42 77
42 78
42 79
43 46
43 49
43 51
43 53
43 55
43 59
43 60
43 62
43 63
43 67
43 68
43 69
43 70
43 73
43 74
43 76
43 77
43 79
44 46
44 47
44 55
44 56
44 57
44 59
44 60
44 61
44 62
44 64
44 66
44 72
44 73
44 74
44 75
44 78
44 79
45 46
45 49
45 52
45 53
45 54
45 55
45 56
45 57
45 62
45 63
45 64
45 68
45 71
45 72
45 73
45 75
45 78
46 47
46 50
46 51
46 52
46 55
46 58
46 62
46 63
46 66
46 68
46 70
46 71
46 76
46 78
47 48
47 49
47 50
47 52
47 53
47 55
47 56
47 58
47 60
47 61
47 68
47 69
47 77
47 79
48 49
48 50
48 51
48 57
48 59
48 61
48 63
48 64
48 65
48 66
48 68
48 71
48 72
48 75
48 76
48 78
48 79
49 50
49 53
49 54
49 59
49 61
49 62
49 64
49 66
49 67
49 68
49 69
49 72
49 77
50 52
50 55
50 59
50 60
50 62
50 63
50 64
50 65
50 66
50 67
50 68
50 69
50 70
50 74
50 75
50 77
50 79
51 52
51 53
51 54
51 58
51 59
51 61
51 62
51 63
51 64
51 65
51 68
51 69
51 71
51 72
51 73
51 74
51 76
51 78
51 79
52 53
52 61
52 63
52 64
52 66
52 69
52 72
52 73
52 76
52 77
52 79
53 56
53 57
53 58
53 59
53 60
53 62
53 63
53 65
53 68
53 71
53 74
53 77
53 78
54 55
54 57
54 59
54 61
54 64
54 65
54 66
54 67
54 68
54 70
54 71
54 74
54 75
54 77
54 78
54 79
55 56
55 57
55 58
55 59
55 60
55 61
55 62
55 63
55 67
55 69
55 70
55 71
55 75
55 77
55 78
55 79
56 57
56 58
56 61
56 62
56 63
56 64
56 65
56 66
56 67
56 70
56 78
56 79
57 59
57 60
57 62
57 65
57 66
57 74
57 75
57 77
57 78
57 79
58 59
58 62
58 63
58 65
58 66
58 67
58 71
58 74
58 76
58 77
58 78
58 79
59 60
59 62
59 63
59 67
59 68
59 69
59 70
59 71
59 73
59 74
59 75
59 76
59 77
60 61
60 64
60 65
60 66
60 68
60 72
60 79
61 66
61 69
61 70
61 71
61 73
61 75
61 76
61 78
62 66
62 68
62 69
62 71
62 74
62 75
62 79
63 64
63 65
63 69
63 71
63 75
63 76
63 79
64 66
64 67
64 68
64 70
64 74
64 75
64 77
64 78
64 79
65 66
65 68
65 70
65 72
65 74
65 75
65 79
66 67
66 69
66 71
66 74
66 76
66 78
66 79
67 69
67 72
67 73
67 74
67 76
67 77
68 72
68 74
68 78
68 79
69 71
69 72
69 73
69 74
69 77
69 78
70 75
70 76
70 77
70 79
71 76
71 78
71 79
72 73
72 74
72 76
72 77
72 79
73 75
73 76
73 79
74 75
74 76
74 79
75 76
75 77
75 78
75 79
77 79
78 79
7 76
0 68
64 78
10 20
42 79
34 59
6 61
9 67
37 54
22 51
4 14
50 63
58 66
13 60
43 65
28 77
1 62
19 26
30 73
5 21
35 74
15 48
12 69
41 49
11 46
32 70
40 56
27 71
2 8
25 45
39 47
29 38
33 55
23 53
3 52
16 36
31 44
24 75
18 57
17 72
